\ LP format - for model browsing. Use MPS format to capture full model detail.
Minimize
  0.25 g_01 + 0.25 g_02 + 0.25 g_03 + 0.25 g_04 + 0.25 g_05 + 0.25 g_06
   + 0.25 g_07 + 0.25 g_08 + 0.25 g_09 + 0.25 g_010 + 0.25 g_011
   + 0.25 g_012 + 0.25 g_013 + 0.25 g_10 + 0.25 g_12 + 0.25 g_13
   + 0.25 g_14 + 0.25 g_15 + 0.25 g_16 + 0.25 g_17 + 0.25 g_18 + 0.25 g_19
   + 0.25 g_110 + 0.25 g_111 + 0.25 g_112 + 0.25 g_113 + 0.25 g_20
   + 0.25 g_21 + 0.25 g_23 + 0.25 g_24 + 0.25 g_25 + 0.25 g_26 + 0.25 g_27
   + 0.25 g_28 + 0.25 g_29 + 0.25 g_210 + 0.25 g_211 + 0.25 g_212
   + 0.25 g_213 + 0.25 g_30 + 0.25 g_31 + 0.25 g_32 + 0.25 g_34 + 0.25 g_35
   + 0.25 g_36 + 0.25 g_37 + 0.25 g_38 + 0.25 g_39 + 0.25 g_310
   + 0.25 g_311 + 0.25 g_312 + 0.25 g_313 + 0.25 g_40 + 0.25 g_41
   + 0.25 g_42 + 0.25 g_43 + 0.25 g_45 + 0.25 g_46 + 0.25 g_47 + 0.25 g_48
   + 0.25 g_49 + 0.25 g_410 + 0.25 g_411 + 0.25 g_412 + 0.25 g_413
   + 0.25 g_50 + 0.25 g_51 + 0.25 g_52 + 0.25 g_53 + 0.25 g_54 + 0.25 g_56
   + 0.25 g_57 + 0.25 g_58 + 0.25 g_59 + 0.25 g_510 + 0.25 g_511
   + 0.25 g_512 + 0.25 g_513 + 0.25 g_60 + 0.25 g_61 + 0.25 g_62
   + 0.25 g_63 + 0.25 g_64 + 0.25 g_65 + 0.25 g_67 + 0.25 g_68 + 0.25 g_69
   + 0.25 g_610 + 0.25 g_611 + 0.25 g_612 + 0.25 g_613 + 0.25 g_70
   + 0.25 g_71 + 0.25 g_72 + 0.25 g_73 + 0.25 g_74 + 0.25 g_75 + 0.25 g_76
   + 0.25 g_78 + 0.25 g_79 + 0.25 g_710 + 0.25 g_711 + 0.25 g_712
   + 0.25 g_713 + 0.25 g_80 + 0.25 g_81 + 0.25 g_82 + 0.25 g_83 + 0.25 g_84
   + 0.25 g_85 + 0.25 g_86 + 0.25 g_87 + 0.25 g_89 + 0.25 g_810
   + 0.25 g_811 + 0.25 g_812 + 0.25 g_813 + 0.25 g_90 + 0.25 g_91
   + 0.25 g_92 + 0.25 g_93 + 0.25 g_94 + 0.25 g_95 + 0.25 g_96 + 0.25 g_97
   + 0.25 g_98 + 0.25 g_910 + 0.25 g_911 + 0.25 g_912 + 0.25 g_913
   + 0.25 g_100 + 0.25 g_101 + 0.25 g_102 + 0.25 g_103 + 0.25 g_104
   + 0.25 g_105 + 0.25 g_106 + 0.25 g_107 + 0.25 g_108 + 0.25 g_109
   + 0.25 g_1011 + 0.25 g_1012 + 0.25 g_1013 + 0.25 g_110 + 0.25 g_111
   + 0.25 g_112 + 0.25 g_113 + 0.25 g_114 + 0.25 g_115 + 0.25 g_116
   + 0.25 g_117 + 0.25 g_118 + 0.25 g_119 + 0.25 g_1110 + 0.25 g_1112
   + 0.25 g_1113 + 0.25 g_120 + 0.25 g_121 + 0.25 g_122 + 0.25 g_123
   + 0.25 g_124 + 0.25 g_125 + 0.25 g_126 + 0.25 g_127 + 0.25 g_128
   + 0.25 g_129 + 0.25 g_1210 + 0.25 g_1211 + 0.25 g_1213 + 0.25 g_130
   + 0.25 g_131 + 0.25 g_132 + 0.25 g_133 + 0.25 g_134 + 0.25 g_135
   + 0.25 g_136 + 0.25 g_137 + 0.25 g_138 + 0.25 g_139 + 0.25 g_1310
   + 0.25 g_1311 + 0.25 g_1312 + g1 + g2
Subject To
 R0: - f_0 - f_1 + l_01 + l_10 + b_01 + b_10 >= -1
 R1: - f_0 - f_2 + l_02 + l_20 + b_02 + b_20 >= -1
 R2: - f_0 - f_3 + l_03 + l_30 + b_03 + b_30 >= -1
 R3: - f_0 - f_4 + l_04 + l_40 + b_04 + b_40 >= -1
 R4: - f_0 - f_5 + l_05 + l_50 + b_05 + b_50 >= -1
 R5: - f_0 - f_6 + l_06 + l_60 + b_06 + b_60 >= -1
 R6: - f_0 - f_7 + l_07 + l_70 + b_07 + b_70 >= -1
 R7: - f_0 - f_8 + l_08 + l_80 + b_08 + b_80 >= -1
 R8: - f_0 - f_9 + l_09 + l_90 + b_09 + b_90 >= -1
 R9: - f_0 - f_10 + l_010 + l_100 + b_010 + b_100 >= -1
 R10: - f_0 - f_11 + l_011 + l_110 + b_011 + b_110 >= -1
 R11: - f_0 - f_12 + l_012 + l_120 + b_012 + b_120 >= -1
 R12: - f_0 - f_13 + l_013 + l_130 + b_013 + b_130 >= -1
 R13: - f_0 - f_1 + l_01 + l_10 + b_01 + b_10 >= -1
 R14: - f_1 - f_2 + l_12 + l_21 + b_12 + b_21 >= -1
 R15: - f_1 - f_3 + l_13 + l_31 + b_13 + b_31 >= -1
 R16: - f_1 - f_4 + l_14 + l_41 + b_14 + b_41 >= -1
 R17: - f_1 - f_5 + l_15 + l_51 + b_15 + b_51 >= -1
 R18: - f_1 - f_6 + l_16 + l_61 + b_16 + b_61 >= -1
 R19: - f_1 - f_7 + l_17 + l_71 + b_17 + b_71 >= -1
 R20: - f_1 - f_8 + l_18 + l_81 + b_18 + b_81 >= -1
 R21: - f_1 - f_9 + l_19 + l_91 + b_19 + b_91 >= -1
 R22: - f_1 - f_10 + l_110 + l_101 + b_110 + b_101 >= -1
 R23: - f_1 - f_11 + l_111 + l_111 + b_111 + b_111 >= -1
 R24: - f_1 - f_12 + l_112 + l_121 + b_112 + b_121 >= -1
 R25: - f_1 - f_13 + l_113 + l_131 + b_113 + b_131 >= -1
 R26: - f_0 - f_2 + l_02 + l_20 + b_02 + b_20 >= -1
 R27: - f_1 - f_2 + l_12 + l_21 + b_12 + b_21 >= -1
 R28: - f_2 - f_3 + l_23 + l_32 + b_23 + b_32 >= -1
 R29: - f_2 - f_4 + l_24 + l_42 + b_24 + b_42 >= -1
 R30: - f_2 - f_5 + l_25 + l_52 + b_25 + b_52 >= -1
 R31: - f_2 - f_6 + l_26 + l_62 + b_26 + b_62 >= -1
 R32: - f_2 - f_7 + l_27 + l_72 + b_27 + b_72 >= -1
 R33: - f_2 - f_8 + l_28 + l_82 + b_28 + b_82 >= -1
 R34: - f_2 - f_9 + l_29 + l_92 + b_29 + b_92 >= -1
 R35: - f_2 - f_10 + l_210 + l_102 + b_210 + b_102 >= -1
 R36: - f_2 - f_11 + l_211 + l_112 + b_211 + b_112 >= -1
 R37: - f_2 - f_12 + l_212 + l_122 + b_212 + b_122 >= -1
 R38: - f_2 - f_13 + l_213 + l_132 + b_213 + b_132 >= -1
 R39: - f_0 - f_3 + l_03 + l_30 + b_03 + b_30 >= -1
 R40: - f_1 - f_3 + l_13 + l_31 + b_13 + b_31 >= -1
 R41: - f_2 - f_3 + l_23 + l_32 + b_23 + b_32 >= -1
 R42: - f_3 - f_4 + l_34 + l_43 + b_34 + b_43 >= -1
 R43: - f_3 - f_5 + l_35 + l_53 + b_35 + b_53 >= -1
 R44: - f_3 - f_6 + l_36 + l_63 + b_36 + b_63 >= -1
 R45: - f_3 - f_7 + l_37 + l_73 + b_37 + b_73 >= -1
 R46: - f_3 - f_8 + l_38 + l_83 + b_38 + b_83 >= -1
 R47: - f_3 - f_9 + l_39 + l_93 + b_39 + b_93 >= -1
 R48: - f_3 - f_10 + l_310 + l_103 + b_310 + b_103 >= -1
 R49: - f_3 - f_11 + l_311 + l_113 + b_311 + b_113 >= -1
 R50: - f_3 - f_12 + l_312 + l_123 + b_312 + b_123 >= -1
 R51: - f_3 - f_13 + l_313 + l_133 + b_313 + b_133 >= -1
 R52: - f_0 - f_4 + l_04 + l_40 + b_04 + b_40 >= -1
 R53: - f_1 - f_4 + l_14 + l_41 + b_14 + b_41 >= -1
 R54: - f_2 - f_4 + l_24 + l_42 + b_24 + b_42 >= -1
 R55: - f_3 - f_4 + l_34 + l_43 + b_34 + b_43 >= -1
 R56: - f_4 - f_5 + l_45 + l_54 + b_45 + b_54 >= -1
 R57: - f_4 - f_6 + l_46 + l_64 + b_46 + b_64 >= -1
 R58: - f_4 - f_7 + l_47 + l_74 + b_47 + b_74 >= -1
 R59: - f_4 - f_8 + l_48 + l_84 + b_48 + b_84 >= -1
 R60: - f_4 - f_9 + l_49 + l_94 + b_49 + b_94 >= -1
 R61: - f_4 - f_10 + l_410 + l_104 + b_410 + b_104 >= -1
 R62: - f_4 - f_11 + l_411 + l_114 + b_411 + b_114 >= -1
 R63: - f_4 - f_12 + l_412 + l_124 + b_412 + b_124 >= -1
 R64: - f_4 - f_13 + l_413 + l_134 + b_413 + b_134 >= -1
 R65: - f_0 - f_5 + l_05 + l_50 + b_05 + b_50 >= -1
 R66: - f_1 - f_5 + l_15 + l_51 + b_15 + b_51 >= -1
 R67: - f_2 - f_5 + l_25 + l_52 + b_25 + b_52 >= -1
 R68: - f_3 - f_5 + l_35 + l_53 + b_35 + b_53 >= -1
 R69: - f_4 - f_5 + l_45 + l_54 + b_45 + b_54 >= -1
 R70: - f_5 - f_6 + l_56 + l_65 + b_56 + b_65 >= -1
 R71: - f_5 - f_7 + l_57 + l_75 + b_57 + b_75 >= -1
 R72: - f_5 - f_8 + l_58 + l_85 + b_58 + b_85 >= -1
 R73: - f_5 - f_9 + l_59 + l_95 + b_59 + b_95 >= -1
 R74: - f_5 - f_10 + l_510 + l_105 + b_510 + b_105 >= -1
 R75: - f_5 - f_11 + l_511 + l_115 + b_511 + b_115 >= -1
 R76: - f_5 - f_12 + l_512 + l_125 + b_512 + b_125 >= -1
 R77: - f_5 - f_13 + l_513 + l_135 + b_513 + b_135 >= -1
 R78: - f_0 - f_6 + l_06 + l_60 + b_06 + b_60 >= -1
 R79: - f_1 - f_6 + l_16 + l_61 + b_16 + b_61 >= -1
 R80: - f_2 - f_6 + l_26 + l_62 + b_26 + b_62 >= -1
 R81: - f_3 - f_6 + l_36 + l_63 + b_36 + b_63 >= -1
 R82: - f_4 - f_6 + l_46 + l_64 + b_46 + b_64 >= -1
 R83: - f_5 - f_6 + l_56 + l_65 + b_56 + b_65 >= -1
 R84: - f_6 - f_7 + l_67 + l_76 + b_67 + b_76 >= -1
 R85: - f_6 - f_8 + l_68 + l_86 + b_68 + b_86 >= -1
 R86: - f_6 - f_9 + l_69 + l_96 + b_69 + b_96 >= -1
 R87: - f_6 - f_10 + l_610 + l_106 + b_610 + b_106 >= -1
 R88: - f_6 - f_11 + l_611 + l_116 + b_611 + b_116 >= -1
 R89: - f_6 - f_12 + l_612 + l_126 + b_612 + b_126 >= -1
 R90: - f_6 - f_13 + l_613 + l_136 + b_613 + b_136 >= -1
 R91: - f_0 - f_7 + l_07 + l_70 + b_07 + b_70 >= -1
 R92: - f_1 - f_7 + l_17 + l_71 + b_17 + b_71 >= -1
 R93: - f_2 - f_7 + l_27 + l_72 + b_27 + b_72 >= -1
 R94: - f_3 - f_7 + l_37 + l_73 + b_37 + b_73 >= -1
 R95: - f_4 - f_7 + l_47 + l_74 + b_47 + b_74 >= -1
 R96: - f_5 - f_7 + l_57 + l_75 + b_57 + b_75 >= -1
 R97: - f_6 - f_7 + l_67 + l_76 + b_67 + b_76 >= -1
 R98: - f_7 - f_8 + l_78 + l_87 + b_78 + b_87 >= -1
 R99: - f_7 - f_9 + l_79 + l_97 + b_79 + b_97 >= -1
 R100: - f_7 - f_10 + l_710 + l_107 + b_710 + b_107 >= -1
 R101: - f_7 - f_11 + l_711 + l_117 + b_711 + b_117 >= -1
 R102: - f_7 - f_12 + l_712 + l_127 + b_712 + b_127 >= -1
 R103: - f_7 - f_13 + l_713 + l_137 + b_713 + b_137 >= -1
 R104: - f_0 - f_8 + l_08 + l_80 + b_08 + b_80 >= -1
 R105: - f_1 - f_8 + l_18 + l_81 + b_18 + b_81 >= -1
 R106: - f_2 - f_8 + l_28 + l_82 + b_28 + b_82 >= -1
 R107: - f_3 - f_8 + l_38 + l_83 + b_38 + b_83 >= -1
 R108: - f_4 - f_8 + l_48 + l_84 + b_48 + b_84 >= -1
 R109: - f_5 - f_8 + l_58 + l_85 + b_58 + b_85 >= -1
 R110: - f_6 - f_8 + l_68 + l_86 + b_68 + b_86 >= -1
 R111: - f_7 - f_8 + l_78 + l_87 + b_78 + b_87 >= -1
 R112: - f_8 - f_9 + l_89 + l_98 + b_89 + b_98 >= -1
 R113: - f_8 - f_10 + l_810 + l_108 + b_810 + b_108 >= -1
 R114: - f_8 - f_11 + l_811 + l_118 + b_811 + b_118 >= -1
 R115: - f_8 - f_12 + l_812 + l_128 + b_812 + b_128 >= -1
 R116: - f_8 - f_13 + l_813 + l_138 + b_813 + b_138 >= -1
 R117: - f_0 - f_9 + l_09 + l_90 + b_09 + b_90 >= -1
 R118: - f_1 - f_9 + l_19 + l_91 + b_19 + b_91 >= -1
 R119: - f_2 - f_9 + l_29 + l_92 + b_29 + b_92 >= -1
 R120: - f_3 - f_9 + l_39 + l_93 + b_39 + b_93 >= -1
 R121: - f_4 - f_9 + l_49 + l_94 + b_49 + b_94 >= -1
 R122: - f_5 - f_9 + l_59 + l_95 + b_59 + b_95 >= -1
 R123: - f_6 - f_9 + l_69 + l_96 + b_69 + b_96 >= -1
 R124: - f_7 - f_9 + l_79 + l_97 + b_79 + b_97 >= -1
 R125: - f_8 - f_9 + l_89 + l_98 + b_89 + b_98 >= -1
 R126: - f_9 - f_10 + l_910 + l_109 + b_910 + b_109 >= -1
 R127: - f_9 - f_11 + l_911 + l_119 + b_911 + b_119 >= -1
 R128: - f_9 - f_12 + l_912 + l_129 + b_912 + b_129 >= -1
 R129: - f_9 - f_13 + l_913 + l_139 + b_913 + b_139 >= -1
 R130: - f_0 - f_10 + l_010 + l_100 + b_010 + b_100 >= -1
 R131: - f_1 - f_10 + l_110 + l_101 + b_110 + b_101 >= -1
 R132: - f_2 - f_10 + l_210 + l_102 + b_210 + b_102 >= -1
 R133: - f_3 - f_10 + l_310 + l_103 + b_310 + b_103 >= -1
 R134: - f_4 - f_10 + l_410 + l_104 + b_410 + b_104 >= -1
 R135: - f_5 - f_10 + l_510 + l_105 + b_510 + b_105 >= -1
 R136: - f_6 - f_10 + l_610 + l_106 + b_610 + b_106 >= -1
 R137: - f_7 - f_10 + l_710 + l_107 + b_710 + b_107 >= -1
 R138: - f_8 - f_10 + l_810 + l_108 + b_810 + b_108 >= -1
 R139: - f_9 - f_10 + l_910 + l_109 + b_910 + b_109 >= -1
 R140: - f_10 - f_11 + l_1011 + l_1110 + b_1011 + b_1110 >= -1
 R141: - f_10 - f_12 + l_1012 + l_1210 + b_1012 + b_1210 >= -1
 R142: - f_10 - f_13 + l_1013 + l_1310 + b_1013 + b_1310 >= -1
 R143: - f_0 - f_11 + l_011 + l_110 + b_011 + b_110 >= -1
 R144: - f_1 - f_11 + l_111 + l_111 + b_111 + b_111 >= -1
 R145: - f_2 - f_11 + l_211 + l_112 + b_211 + b_112 >= -1
 R146: - f_3 - f_11 + l_311 + l_113 + b_311 + b_113 >= -1
 R147: - f_4 - f_11 + l_411 + l_114 + b_411 + b_114 >= -1
 R148: - f_5 - f_11 + l_511 + l_115 + b_511 + b_115 >= -1
 R149: - f_6 - f_11 + l_611 + l_116 + b_611 + b_116 >= -1
 R150: - f_7 - f_11 + l_711 + l_117 + b_711 + b_117 >= -1
 R151: - f_8 - f_11 + l_811 + l_118 + b_811 + b_118 >= -1
 R152: - f_9 - f_11 + l_911 + l_119 + b_911 + b_119 >= -1
 R153: - f_10 - f_11 + l_1011 + l_1110 + b_1011 + b_1110 >= -1
 R154: - f_11 - f_12 + l_1112 + l_1211 + b_1112 + b_1211 >= -1
 R155: - f_11 - f_13 + l_1113 + l_1311 + b_1113 + b_1311 >= -1
 R156: - f_0 - f_12 + l_012 + l_120 + b_012 + b_120 >= -1
 R157: - f_1 - f_12 + l_112 + l_121 + b_112 + b_121 >= -1
 R158: - f_2 - f_12 + l_212 + l_122 + b_212 + b_122 >= -1
 R159: - f_3 - f_12 + l_312 + l_123 + b_312 + b_123 >= -1
 R160: - f_4 - f_12 + l_412 + l_124 + b_412 + b_124 >= -1
 R161: - f_5 - f_12 + l_512 + l_125 + b_512 + b_125 >= -1
 R162: - f_6 - f_12 + l_612 + l_126 + b_612 + b_126 >= -1
 R163: - f_7 - f_12 + l_712 + l_127 + b_712 + b_127 >= -1
 R164: - f_8 - f_12 + l_812 + l_128 + b_812 + b_128 >= -1
 R165: - f_9 - f_12 + l_912 + l_129 + b_912 + b_129 >= -1
 R166: - f_10 - f_12 + l_1012 + l_1210 + b_1012 + b_1210 >= -1
 R167: - f_11 - f_12 + l_1112 + l_1211 + b_1112 + b_1211 >= -1
 R168: - f_12 - f_13 + l_1213 + l_1312 + b_1213 + b_1312 >= -1
 R169: - f_0 - f_13 + l_013 + l_130 + b_013 + b_130 >= -1
 R170: - f_1 - f_13 + l_113 + l_131 + b_113 + b_131 >= -1
 R171: - f_2 - f_13 + l_213 + l_132 + b_213 + b_132 >= -1
 R172: - f_3 - f_13 + l_313 + l_133 + b_313 + b_133 >= -1
 R173: - f_4 - f_13 + l_413 + l_134 + b_413 + b_134 >= -1
 R174: - f_5 - f_13 + l_513 + l_135 + b_513 + b_135 >= -1
 R175: - f_6 - f_13 + l_613 + l_136 + b_613 + b_136 >= -1
 R176: - f_7 - f_13 + l_713 + l_137 + b_713 + b_137 >= -1
 R177: - f_8 - f_13 + l_813 + l_138 + b_813 + b_138 >= -1
 R178: - f_9 - f_13 + l_913 + l_139 + b_913 + b_139 >= -1
 R179: - f_10 - f_13 + l_1013 + l_1310 + b_1013 + b_1310 >= -1
 R180: - f_11 - f_13 + l_1113 + l_1311 + b_1113 + b_1311 >= -1
 R181: - f_12 - f_13 + l_1213 + l_1312 + b_1213 + b_1312 >= -1
 R182: x_0 - x_1 + 39 l_01 <= 33
 R183: x_0 - x_2 + 39 l_02 <= 33
 R184: x_0 - x_3 + 39 l_03 <= 33
 R185: x_0 - x_4 + 39 l_04 <= 33
 R186: x_0 - x_5 + 39 l_05 <= 33
 R187: x_0 - x_6 + 39 l_06 <= 33
 R188: x_0 - x_7 + 39 l_07 <= 33
 R189: x_0 - x_8 + 39 l_08 <= 33
 R190: x_0 - x_9 + 39 l_09 <= 33
 R191: x_0 - x_10 + 39 l_010 <= 33
 R192: x_0 - x_11 + 39 l_011 <= 33
 R193: x_0 - x_12 + 39 l_012 <= 33
 R194: x_0 - x_13 + 39 l_013 <= 33
 R195: - x_0 + x_1 + 39 l_10 <= 35
 R196: x_1 - x_2 + 39 l_12 <= 35
 R197: x_1 - x_3 + 39 l_13 <= 35
 R198: x_1 - x_4 + 39 l_14 <= 35
 R199: x_1 - x_5 + 39 l_15 <= 35
 R200: x_1 - x_6 + 39 l_16 <= 35
 R201: x_1 - x_7 + 39 l_17 <= 35
 R202: x_1 - x_8 + 39 l_18 <= 35
 R203: x_1 - x_9 + 39 l_19 <= 35
 R204: x_1 - x_10 + 39 l_110 <= 35
 R205: x_1 - x_11 + 39 l_111 <= 35
 R206: x_1 - x_12 + 39 l_112 <= 35
 R207: x_1 - x_13 + 39 l_113 <= 35
 R208: - x_0 + x_2 + 39 l_20 <= 35
 R209: - x_1 + x_2 + 39 l_21 <= 35
 R210: x_2 - x_3 + 39 l_23 <= 35
 R211: x_2 - x_4 + 39 l_24 <= 35
 R212: x_2 - x_5 + 39 l_25 <= 35
 R213: x_2 - x_6 + 39 l_26 <= 35
 R214: x_2 - x_7 + 39 l_27 <= 35
 R215: x_2 - x_8 + 39 l_28 <= 35
 R216: x_2 - x_9 + 39 l_29 <= 35
 R217: x_2 - x_10 + 39 l_210 <= 35
 R218: x_2 - x_11 + 39 l_211 <= 35
 R219: x_2 - x_12 + 39 l_212 <= 35
 R220: x_2 - x_13 + 39 l_213 <= 35
 R221: - x_0 + x_3 + 39 l_30 <= 33
 R222: - x_1 + x_3 + 39 l_31 <= 33
 R223: - x_2 + x_3 + 39 l_32 <= 33
 R224: x_3 - x_4 + 39 l_34 <= 33
 R225: x_3 - x_5 + 39 l_35 <= 33
 R226: x_3 - x_6 + 39 l_36 <= 33
 R227: x_3 - x_7 + 39 l_37 <= 33
 R228: x_3 - x_8 + 39 l_38 <= 33
 R229: x_3 - x_9 + 39 l_39 <= 33
 R230: x_3 - x_10 + 39 l_310 <= 33
 R231: x_3 - x_11 + 39 l_311 <= 33
 R232: x_3 - x_12 + 39 l_312 <= 33
 R233: x_3 - x_13 + 39 l_313 <= 33
 R234: - x_0 + x_4 + 39 l_40 <= 34
 R235: - x_1 + x_4 + 39 l_41 <= 34
 R236: - x_2 + x_4 + 39 l_42 <= 34
 R237: - x_3 + x_4 + 39 l_43 <= 34
 R238: x_4 - x_5 + 39 l_45 <= 34
 R239: x_4 - x_6 + 39 l_46 <= 34
 R240: x_4 - x_7 + 39 l_47 <= 34
 R241: x_4 - x_8 + 39 l_48 <= 34
 R242: x_4 - x_9 + 39 l_49 <= 34
 R243: x_4 - x_10 + 39 l_410 <= 34
 R244: x_4 - x_11 + 39 l_411 <= 34
 R245: x_4 - x_12 + 39 l_412 <= 34
 R246: x_4 - x_13 + 39 l_413 <= 34
 R247: - x_0 + x_5 + 39 l_50 <= 35
 R248: - x_1 + x_5 + 39 l_51 <= 35
 R249: - x_2 + x_5 + 39 l_52 <= 35
 R250: - x_3 + x_5 + 39 l_53 <= 35
 R251: - x_4 + x_5 + 39 l_54 <= 35
 R252: x_5 - x_6 + 39 l_56 <= 35
 R253: x_5 - x_7 + 39 l_57 <= 35
 R254: x_5 - x_8 + 39 l_58 <= 35
 R255: x_5 - x_9 + 39 l_59 <= 35
 R256: x_5 - x_10 + 39 l_510 <= 35
 R257: x_5 - x_11 + 39 l_511 <= 35
 R258: x_5 - x_12 + 39 l_512 <= 35
 R259: x_5 - x_13 + 39 l_513 <= 35
 R260: - x_0 + x_6 + 39 l_60 <= 33
 R261: - x_1 + x_6 + 39 l_61 <= 33
 R262: - x_2 + x_6 + 39 l_62 <= 33
 R263: - x_3 + x_6 + 39 l_63 <= 33
 R264: - x_4 + x_6 + 39 l_64 <= 33
 R265: - x_5 + x_6 + 39 l_65 <= 33
 R266: x_6 - x_7 + 39 l_67 <= 33
 R267: x_6 - x_8 + 39 l_68 <= 33
 R268: x_6 - x_9 + 39 l_69 <= 33
 R269: x_6 - x_10 + 39 l_610 <= 33
 R270: x_6 - x_11 + 39 l_611 <= 33
 R271: x_6 - x_12 + 39 l_612 <= 33
 R272: x_6 - x_13 + 39 l_613 <= 33
 R273: - x_0 + x_7 + 39 l_70 <= 34
 R274: - x_1 + x_7 + 39 l_71 <= 34
 R275: - x_2 + x_7 + 39 l_72 <= 34
 R276: - x_3 + x_7 + 39 l_73 <= 34
 R277: - x_4 + x_7 + 39 l_74 <= 34
 R278: - x_5 + x_7 + 39 l_75 <= 34
 R279: - x_6 + x_7 + 39 l_76 <= 34
 R280: x_7 - x_8 + 39 l_78 <= 34
 R281: x_7 - x_9 + 39 l_79 <= 34
 R282: x_7 - x_10 + 39 l_710 <= 34
 R283: x_7 - x_11 + 39 l_711 <= 34
 R284: x_7 - x_12 + 39 l_712 <= 34
 R285: x_7 - x_13 + 39 l_713 <= 34
 R286: - x_0 + x_8 + 39 l_80 <= 35
 R287: - x_1 + x_8 + 39 l_81 <= 35
 R288: - x_2 + x_8 + 39 l_82 <= 35
 R289: - x_3 + x_8 + 39 l_83 <= 35
 R290: - x_4 + x_8 + 39 l_84 <= 35
 R291: - x_5 + x_8 + 39 l_85 <= 35
 R292: - x_6 + x_8 + 39 l_86 <= 35
 R293: - x_7 + x_8 + 39 l_87 <= 35
 R294: x_8 - x_9 + 39 l_89 <= 35
 R295: x_8 - x_10 + 39 l_810 <= 35
 R296: x_8 - x_11 + 39 l_811 <= 35
 R297: x_8 - x_12 + 39 l_812 <= 35
 R298: x_8 - x_13 + 39 l_813 <= 35
 R299: - x_0 + x_9 + 39 l_90 <= 33
 R300: - x_1 + x_9 + 39 l_91 <= 33
 R301: - x_2 + x_9 + 39 l_92 <= 33
 R302: - x_3 + x_9 + 39 l_93 <= 33
 R303: - x_4 + x_9 + 39 l_94 <= 33
 R304: - x_5 + x_9 + 39 l_95 <= 33
 R305: - x_6 + x_9 + 39 l_96 <= 33
 R306: - x_7 + x_9 + 39 l_97 <= 33
 R307: - x_8 + x_9 + 39 l_98 <= 33
 R308: x_9 - x_10 + 39 l_910 <= 33
 R309: x_9 - x_11 + 39 l_911 <= 33
 R310: x_9 - x_12 + 39 l_912 <= 33
 R311: x_9 - x_13 + 39 l_913 <= 33
 R312: - x_0 + x_10 + 39 l_100 <= 35
 R313: - x_1 + x_10 + 39 l_101 <= 35
 R314: - x_2 + x_10 + 39 l_102 <= 35
 R315: - x_3 + x_10 + 39 l_103 <= 35
 R316: - x_4 + x_10 + 39 l_104 <= 35
 R317: - x_5 + x_10 + 39 l_105 <= 35
 R318: - x_6 + x_10 + 39 l_106 <= 35
 R319: - x_7 + x_10 + 39 l_107 <= 35
 R320: - x_8 + x_10 + 39 l_108 <= 35
 R321: - x_9 + x_10 + 39 l_109 <= 35
 R322: x_10 - x_11 + 39 l_1011 <= 35
 R323: x_10 - x_12 + 39 l_1012 <= 35
 R324: x_10 - x_13 + 39 l_1013 <= 35
 R325: - x_0 + x_11 + 39 l_110 <= 34
 R326: - x_1 + x_11 + 39 l_111 <= 34
 R327: - x_2 + x_11 + 39 l_112 <= 34
 R328: - x_3 + x_11 + 39 l_113 <= 34
 R329: - x_4 + x_11 + 39 l_114 <= 34
 R330: - x_5 + x_11 + 39 l_115 <= 34
 R331: - x_6 + x_11 + 39 l_116 <= 34
 R332: - x_7 + x_11 + 39 l_117 <= 34
 R333: - x_8 + x_11 + 39 l_118 <= 34
 R334: - x_9 + x_11 + 39 l_119 <= 34
 R335: - x_10 + x_11 + 39 l_1110 <= 34
 R336: x_11 - x_12 + 39 l_1112 <= 34
 R337: x_11 - x_13 + 39 l_1113 <= 34
 R338: - x_0 + x_12 + 39 l_120 <= 34
 R339: - x_1 + x_12 + 39 l_121 <= 34
 R340: - x_2 + x_12 + 39 l_122 <= 34
 R341: - x_3 + x_12 + 39 l_123 <= 34
 R342: - x_4 + x_12 + 39 l_124 <= 34
 R343: - x_5 + x_12 + 39 l_125 <= 34
 R344: - x_6 + x_12 + 39 l_126 <= 34
 R345: - x_7 + x_12 + 39 l_127 <= 34
 R346: - x_8 + x_12 + 39 l_128 <= 34
 R347: - x_9 + x_12 + 39 l_129 <= 34
 R348: - x_10 + x_12 + 39 l_1210 <= 34
 R349: - x_11 + x_12 + 39 l_1211 <= 34
 R350: x_12 - x_13 + 39 l_1213 <= 34
 R351: - x_0 + x_13 + 39 l_130 <= 34
 R352: - x_1 + x_13 + 39 l_131 <= 34
 R353: - x_2 + x_13 + 39 l_132 <= 34
 R354: - x_3 + x_13 + 39 l_133 <= 34
 R355: - x_4 + x_13 + 39 l_134 <= 34
 R356: - x_5 + x_13 + 39 l_135 <= 34
 R357: - x_6 + x_13 + 39 l_136 <= 34
 R358: - x_7 + x_13 + 39 l_137 <= 34
 R359: - x_8 + x_13 + 39 l_138 <= 34
 R360: - x_9 + x_13 + 39 l_139 <= 34
 R361: - x_10 + x_13 + 39 l_1310 <= 34
 R362: - x_11 + x_13 + 39 l_1311 <= 34
 R363: - x_12 + x_13 + 39 l_1312 <= 34
 R364: y_0 - y_1 + 36 b_01 <= 31
 R365: y_0 - y_2 + 36 b_02 <= 31
 R366: y_0 - y_3 + 36 b_03 <= 31
 R367: y_0 - y_4 + 36 b_04 <= 31
 R368: y_0 - y_5 + 36 b_05 <= 31
 R369: y_0 - y_6 + 36 b_06 <= 31
 R370: y_0 - y_7 + 36 b_07 <= 31
 R371: y_0 - y_8 + 36 b_08 <= 31
 R372: y_0 - y_9 + 36 b_09 <= 31
 R373: y_0 - y_10 + 36 b_010 <= 31
 R374: y_0 - y_11 + 36 b_011 <= 31
 R375: y_0 - y_12 + 36 b_012 <= 31
 R376: y_0 - y_13 + 36 b_013 <= 31
 R377: - y_0 + y_1 + 36 b_10 <= 32
 R378: y_1 - y_2 + 36 b_12 <= 32
 R379: y_1 - y_3 + 36 b_13 <= 32
 R380: y_1 - y_4 + 36 b_14 <= 32
 R381: y_1 - y_5 + 36 b_15 <= 32
 R382: y_1 - y_6 + 36 b_16 <= 32
 R383: y_1 - y_7 + 36 b_17 <= 32
 R384: y_1 - y_8 + 36 b_18 <= 32
 R385: y_1 - y_9 + 36 b_19 <= 32
 R386: y_1 - y_10 + 36 b_110 <= 32
 R387: y_1 - y_11 + 36 b_111 <= 32
 R388: y_1 - y_12 + 36 b_112 <= 32
 R389: y_1 - y_13 + 36 b_113 <= 32
 R390: - y_0 + y_2 + 36 b_20 <= 32
 R391: - y_1 + y_2 + 36 b_21 <= 32
 R392: y_2 - y_3 + 36 b_23 <= 32
 R393: y_2 - y_4 + 36 b_24 <= 32
 R394: y_2 - y_5 + 36 b_25 <= 32
 R395: y_2 - y_6 + 36 b_26 <= 32
 R396: y_2 - y_7 + 36 b_27 <= 32
 R397: y_2 - y_8 + 36 b_28 <= 32
 R398: y_2 - y_9 + 36 b_29 <= 32
 R399: y_2 - y_10 + 36 b_210 <= 32
 R400: y_2 - y_11 + 36 b_211 <= 32
 R401: y_2 - y_12 + 36 b_212 <= 32
 R402: y_2 - y_13 + 36 b_213 <= 32
 R403: - y_0 + y_3 + 36 b_30 <= 31
 R404: - y_1 + y_3 + 36 b_31 <= 31
 R405: - y_2 + y_3 + 36 b_32 <= 31
 R406: y_3 - y_4 + 36 b_34 <= 31
 R407: y_3 - y_5 + 36 b_35 <= 31
 R408: y_3 - y_6 + 36 b_36 <= 31
 R409: y_3 - y_7 + 36 b_37 <= 31
 R410: y_3 - y_8 + 36 b_38 <= 31
 R411: y_3 - y_9 + 36 b_39 <= 31
 R412: y_3 - y_10 + 36 b_310 <= 31
 R413: y_3 - y_11 + 36 b_311 <= 31
 R414: y_3 - y_12 + 36 b_312 <= 31
 R415: y_3 - y_13 + 36 b_313 <= 31
 R416: - y_0 + y_4 + 36 b_40 <= 31
 R417: - y_1 + y_4 + 36 b_41 <= 31
 R418: - y_2 + y_4 + 36 b_42 <= 31
 R419: - y_3 + y_4 + 36 b_43 <= 31
 R420: y_4 - y_5 + 36 b_45 <= 31
 R421: y_4 - y_6 + 36 b_46 <= 31
 R422: y_4 - y_7 + 36 b_47 <= 31
 R423: y_4 - y_8 + 36 b_48 <= 31
 R424: y_4 - y_9 + 36 b_49 <= 31
 R425: y_4 - y_10 + 36 b_410 <= 31
 R426: y_4 - y_11 + 36 b_411 <= 31
 R427: y_4 - y_12 + 36 b_412 <= 31
 R428: y_4 - y_13 + 36 b_413 <= 31
 R429: - y_0 + y_5 + 36 b_50 <= 32
 R430: - y_1 + y_5 + 36 b_51 <= 32
 R431: - y_2 + y_5 + 36 b_52 <= 32
 R432: - y_3 + y_5 + 36 b_53 <= 32
 R433: - y_4 + y_5 + 36 b_54 <= 32
 R434: y_5 - y_6 + 36 b_56 <= 32
 R435: y_5 - y_7 + 36 b_57 <= 32
 R436: y_5 - y_8 + 36 b_58 <= 32
 R437: y_5 - y_9 + 36 b_59 <= 32
 R438: y_5 - y_10 + 36 b_510 <= 32
 R439: y_5 - y_11 + 36 b_511 <= 32
 R440: y_5 - y_12 + 36 b_512 <= 32
 R441: y_5 - y_13 + 36 b_513 <= 32
 R442: - y_0 + y_6 + 36 b_60 <= 31
 R443: - y_1 + y_6 + 36 b_61 <= 31
 R444: - y_2 + y_6 + 36 b_62 <= 31
 R445: - y_3 + y_6 + 36 b_63 <= 31
 R446: - y_4 + y_6 + 36 b_64 <= 31
 R447: - y_5 + y_6 + 36 b_65 <= 31
 R448: y_6 - y_7 + 36 b_67 <= 31
 R449: y_6 - y_8 + 36 b_68 <= 31
 R450: y_6 - y_9 + 36 b_69 <= 31
 R451: y_6 - y_10 + 36 b_610 <= 31
 R452: y_6 - y_11 + 36 b_611 <= 31
 R453: y_6 - y_12 + 36 b_612 <= 31
 R454: y_6 - y_13 + 36 b_613 <= 31
 R455: - y_0 + y_7 + 36 b_70 <= 31
 R456: - y_1 + y_7 + 36 b_71 <= 31
 R457: - y_2 + y_7 + 36 b_72 <= 31
 R458: - y_3 + y_7 + 36 b_73 <= 31
 R459: - y_4 + y_7 + 36 b_74 <= 31
 R460: - y_5 + y_7 + 36 b_75 <= 31
 R461: - y_6 + y_7 + 36 b_76 <= 31
 R462: y_7 - y_8 + 36 b_78 <= 31
 R463: y_7 - y_9 + 36 b_79 <= 31
 R464: y_7 - y_10 + 36 b_710 <= 31
 R465: y_7 - y_11 + 36 b_711 <= 31
 R466: y_7 - y_12 + 36 b_712 <= 31
 R467: y_7 - y_13 + 36 b_713 <= 31
 R468: - y_0 + y_8 + 36 b_80 <= 32
 R469: - y_1 + y_8 + 36 b_81 <= 32
 R470: - y_2 + y_8 + 36 b_82 <= 32
 R471: - y_3 + y_8 + 36 b_83 <= 32
 R472: - y_4 + y_8 + 36 b_84 <= 32
 R473: - y_5 + y_8 + 36 b_85 <= 32
 R474: - y_6 + y_8 + 36 b_86 <= 32
 R475: - y_7 + y_8 + 36 b_87 <= 32
 R476: y_8 - y_9 + 36 b_89 <= 32
 R477: y_8 - y_10 + 36 b_810 <= 32
 R478: y_8 - y_11 + 36 b_811 <= 32
 R479: y_8 - y_12 + 36 b_812 <= 32
 R480: y_8 - y_13 + 36 b_813 <= 32
 R481: - y_0 + y_9 + 36 b_90 <= 31
 R482: - y_1 + y_9 + 36 b_91 <= 31
 R483: - y_2 + y_9 + 36 b_92 <= 31
 R484: - y_3 + y_9 + 36 b_93 <= 31
 R485: - y_4 + y_9 + 36 b_94 <= 31
 R486: - y_5 + y_9 + 36 b_95 <= 31
 R487: - y_6 + y_9 + 36 b_96 <= 31
 R488: - y_7 + y_9 + 36 b_97 <= 31
 R489: - y_8 + y_9 + 36 b_98 <= 31
 R490: y_9 - y_10 + 36 b_910 <= 31
 R491: y_9 - y_11 + 36 b_911 <= 31
 R492: y_9 - y_12 + 36 b_912 <= 31
 R493: y_9 - y_13 + 36 b_913 <= 31
 R494: - y_0 + y_10 + 36 b_100 <= 32
 R495: - y_1 + y_10 + 36 b_101 <= 32
 R496: - y_2 + y_10 + 36 b_102 <= 32
 R497: - y_3 + y_10 + 36 b_103 <= 32
 R498: - y_4 + y_10 + 36 b_104 <= 32
 R499: - y_5 + y_10 + 36 b_105 <= 32
 R500: - y_6 + y_10 + 36 b_106 <= 32
 R501: - y_7 + y_10 + 36 b_107 <= 32
 R502: - y_8 + y_10 + 36 b_108 <= 32
 R503: - y_9 + y_10 + 36 b_109 <= 32
 R504: y_10 - y_11 + 36 b_1011 <= 32
 R505: y_10 - y_12 + 36 b_1012 <= 32
 R506: y_10 - y_13 + 36 b_1013 <= 32
 R507: - y_0 + y_11 + 36 b_110 <= 31
 R508: - y_1 + y_11 + 36 b_111 <= 31
 R509: - y_2 + y_11 + 36 b_112 <= 31
 R510: - y_3 + y_11 + 36 b_113 <= 31
 R511: - y_4 + y_11 + 36 b_114 <= 31
 R512: - y_5 + y_11 + 36 b_115 <= 31
 R513: - y_6 + y_11 + 36 b_116 <= 31
 R514: - y_7 + y_11 + 36 b_117 <= 31
 R515: - y_8 + y_11 + 36 b_118 <= 31
 R516: - y_9 + y_11 + 36 b_119 <= 31
 R517: - y_10 + y_11 + 36 b_1110 <= 31
 R518: y_11 - y_12 + 36 b_1112 <= 31
 R519: y_11 - y_13 + 36 b_1113 <= 31
 R520: - y_0 + y_12 + 36 b_120 <= 31
 R521: - y_1 + y_12 + 36 b_121 <= 31
 R522: - y_2 + y_12 + 36 b_122 <= 31
 R523: - y_3 + y_12 + 36 b_123 <= 31
 R524: - y_4 + y_12 + 36 b_124 <= 31
 R525: - y_5 + y_12 + 36 b_125 <= 31
 R526: - y_6 + y_12 + 36 b_126 <= 31
 R527: - y_7 + y_12 + 36 b_127 <= 31
 R528: - y_8 + y_12 + 36 b_128 <= 31
 R529: - y_9 + y_12 + 36 b_129 <= 31
 R530: - y_10 + y_12 + 36 b_1210 <= 31
 R531: - y_11 + y_12 + 36 b_1211 <= 31
 R532: y_12 - y_13 + 36 b_1213 <= 31
 R533: - y_0 + y_13 + 36 b_130 <= 31
 R534: - y_1 + y_13 + 36 b_131 <= 31
 R535: - y_2 + y_13 + 36 b_132 <= 31
 R536: - y_3 + y_13 + 36 b_133 <= 31
 R537: - y_4 + y_13 + 36 b_134 <= 31
 R538: - y_5 + y_13 + 36 b_135 <= 31
 R539: - y_6 + y_13 + 36 b_136 <= 31
 R540: - y_7 + y_13 + 36 b_137 <= 31
 R541: - y_8 + y_13 + 36 b_138 <= 31
 R542: - y_9 + y_13 + 36 b_139 <= 31
 R543: - y_10 + y_13 + 36 b_1310 <= 31
 R544: - y_11 + y_13 + 36 b_1311 <= 31
 R545: - y_12 + y_13 + 36 b_1312 <= 31
 R546: x_0 >= 0
 R547: x_1 >= 0
 R548: x_2 >= 0
 R549: x_3 >= 0
 R550: x_4 >= 0
 R551: x_5 >= 0
 R552: x_6 >= 0
 R553: x_7 >= 0
 R554: x_8 >= 0
 R555: x_9 >= 0
 R556: x_10 >= 0
 R557: x_11 >= 0
 R558: x_12 >= 0
 R559: x_13 >= 0
 R560: x_0 <= 33
 R561: x_1 <= 35
 R562: x_2 <= 35
 R563: x_3 <= 33
 R564: x_4 <= 34
 R565: x_5 <= 35
 R566: x_6 <= 33
 R567: x_7 <= 34
 R568: x_8 <= 35
 R569: x_9 <= 33
 R570: x_10 <= 35
 R571: x_11 <= 34
 R572: x_12 <= 34
 R573: x_13 <= 34
 R574: y_0 >= 0
 R575: y_1 >= 0
 R576: y_2 >= 0
 R577: y_3 >= 0
 R578: y_4 >= 0
 R579: y_5 >= 0
 R580: y_6 >= 0
 R581: y_7 >= 0
 R582: y_8 >= 0
 R583: y_9 >= 0
 R584: y_10 >= 0
 R585: y_11 >= 0
 R586: y_12 >= 0
 R587: y_13 >= 0
 R588: y_0 <= 31
 R589: y_1 <= 32
 R590: y_2 <= 32
 R591: y_3 <= 31
 R592: y_4 <= 31
 R593: y_5 <= 32
 R594: y_6 <= 31
 R595: y_7 <= 31
 R596: y_8 <= 32
 R597: y_9 <= 31
 R598: y_10 <= 32
 R599: y_11 <= 31
 R600: y_12 <= 31
 R601: y_13 <= 31
 R602: - 30 f_0 - 16 f_1 - 16 f_2 - 30 f_3 - 25 f_4 - 16 f_5 - 30 f_6
   - 25 f_7 - 16 f_8 - 30 f_9 - 16 f_10 - 25 f_11 - 25 f_12 - 25 f_13 - g1
   = -1402
 R603: - 30 f_0 - 16 f_1 - 16 f_2 - 30 f_3 - 25 f_4 - 16 f_5 - 30 f_6
   - 25 f_7 - 16 f_8 - 30 f_9 - 16 f_10 - 25 f_11 - 25 f_12 - 25 f_13 - g1
   = -1402
 R604: - 30 f_0 - 16 f_1 - 16 f_2 - 30 f_3 - 25 f_4 - 16 f_5 - 30 f_6
   - 25 f_7 - 16 f_8 - 30 f_9 - 16 f_10 - 25 f_11 - 25 f_12 - 25 f_13 - g1
   = -1402
 R605: - 30 f_0 - 16 f_1 - 16 f_2 - 30 f_3 - 25 f_4 - 16 f_5 - 30 f_6
   - 25 f_7 - 16 f_8 - 30 f_9 - 16 f_10 - 25 f_11 - 25 f_12 - 25 f_13 - g1
   = -1402
 R606: - 30 f_0 - 16 f_1 - 16 f_2 - 30 f_3 - 25 f_4 - 16 f_5 - 30 f_6
   - 25 f_7 - 16 f_8 - 30 f_9 - 16 f_10 - 25 f_11 - 25 f_12 - 25 f_13 - g1
   = -1402
 R607: - 30 f_0 - 16 f_1 - 16 f_2 - 30 f_3 - 25 f_4 - 16 f_5 - 30 f_6
   - 25 f_7 - 16 f_8 - 30 f_9 - 16 f_10 - 25 f_11 - 25 f_12 - 25 f_13 - g1
   = -1402
 R608: - 30 f_0 - 16 f_1 - 16 f_2 - 30 f_3 - 25 f_4 - 16 f_5 - 30 f_6
   - 25 f_7 - 16 f_8 - 30 f_9 - 16 f_10 - 25 f_11 - 25 f_12 - 25 f_13 - g1
   = -1402
 R609: - 30 f_0 - 16 f_1 - 16 f_2 - 30 f_3 - 25 f_4 - 16 f_5 - 30 f_6
   - 25 f_7 - 16 f_8 - 30 f_9 - 16 f_10 - 25 f_11 - 25 f_12 - 25 f_13 - g1
   = -1402
 R610: - 30 f_0 - 16 f_1 - 16 f_2 - 30 f_3 - 25 f_4 - 16 f_5 - 30 f_6
   - 25 f_7 - 16 f_8 - 30 f_9 - 16 f_10 - 25 f_11 - 25 f_12 - 25 f_13 - g1
   = -1402
 R611: - 30 f_0 - 16 f_1 - 16 f_2 - 30 f_3 - 25 f_4 - 16 f_5 - 30 f_6
   - 25 f_7 - 16 f_8 - 30 f_9 - 16 f_10 - 25 f_11 - 25 f_12 - 25 f_13 - g1
   = -1402
 R612: - 30 f_0 - 16 f_1 - 16 f_2 - 30 f_3 - 25 f_4 - 16 f_5 - 30 f_6
   - 25 f_7 - 16 f_8 - 30 f_9 - 16 f_10 - 25 f_11 - 25 f_12 - 25 f_13 - g1
   = -1402
 R613: - 30 f_0 - 16 f_1 - 16 f_2 - 30 f_3 - 25 f_4 - 16 f_5 - 30 f_6
   - 25 f_7 - 16 f_8 - 30 f_9 - 16 f_10 - 25 f_11 - 25 f_12 - 25 f_13 - g1
   = -1402
 R614: - 30 f_0 - 16 f_1 - 16 f_2 - 30 f_3 - 25 f_4 - 16 f_5 - 30 f_6
   - 25 f_7 - 16 f_8 - 30 f_9 - 16 f_10 - 25 f_11 - 25 f_12 - 25 f_13 - g1
   = -1402
 R615: - 30 f_0 - 16 f_1 - 16 f_2 - 30 f_3 - 25 f_4 - 16 f_5 - 30 f_6
   - 25 f_7 - 16 f_8 - 30 f_9 - 16 f_10 - 25 f_11 - 25 f_12 - 25 f_13 - g1
   = -1402
 R616: 16 f_0 + 8 f_1 + 8 f_2 + 16 f_3 + 12 f_4 + 8 f_5 + 16 f_6 + 12 f_7
   + 8 f_8 + 16 f_9 + 8 f_10 + 12 f_11 + 12 f_12 + 12 f_13 + g2 = 10
 R617: 16 f_0 + 8 f_1 + 8 f_2 + 16 f_3 + 12 f_4 + 8 f_5 + 16 f_6 + 12 f_7
   + 8 f_8 + 16 f_9 + 8 f_10 + 12 f_11 + 12 f_12 + 12 f_13 + g2 = 10
 R618: 16 f_0 + 8 f_1 + 8 f_2 + 16 f_3 + 12 f_4 + 8 f_5 + 16 f_6 + 12 f_7
   + 8 f_8 + 16 f_9 + 8 f_10 + 12 f_11 + 12 f_12 + 12 f_13 + g2 = 10
 R619: 16 f_0 + 8 f_1 + 8 f_2 + 16 f_3 + 12 f_4 + 8 f_5 + 16 f_6 + 12 f_7
   + 8 f_8 + 16 f_9 + 8 f_10 + 12 f_11 + 12 f_12 + 12 f_13 + g2 = 10
 R620: 16 f_0 + 8 f_1 + 8 f_2 + 16 f_3 + 12 f_4 + 8 f_5 + 16 f_6 + 12 f_7
   + 8 f_8 + 16 f_9 + 8 f_10 + 12 f_11 + 12 f_12 + 12 f_13 + g2 = 10
 R621: 16 f_0 + 8 f_1 + 8 f_2 + 16 f_3 + 12 f_4 + 8 f_5 + 16 f_6 + 12 f_7
   + 8 f_8 + 16 f_9 + 8 f_10 + 12 f_11 + 12 f_12 + 12 f_13 + g2 = 10
 R622: 16 f_0 + 8 f_1 + 8 f_2 + 16 f_3 + 12 f_4 + 8 f_5 + 16 f_6 + 12 f_7
   + 8 f_8 + 16 f_9 + 8 f_10 + 12 f_11 + 12 f_12 + 12 f_13 + g2 = 10
 R623: 16 f_0 + 8 f_1 + 8 f_2 + 16 f_3 + 12 f_4 + 8 f_5 + 16 f_6 + 12 f_7
   + 8 f_8 + 16 f_9 + 8 f_10 + 12 f_11 + 12 f_12 + 12 f_13 + g2 = 10
 R624: 16 f_0 + 8 f_1 + 8 f_2 + 16 f_3 + 12 f_4 + 8 f_5 + 16 f_6 + 12 f_7
   + 8 f_8 + 16 f_9 + 8 f_10 + 12 f_11 + 12 f_12 + 12 f_13 + g2 = 10
 R625: 16 f_0 + 8 f_1 + 8 f_2 + 16 f_3 + 12 f_4 + 8 f_5 + 16 f_6 + 12 f_7
   + 8 f_8 + 16 f_9 + 8 f_10 + 12 f_11 + 12 f_12 + 12 f_13 + g2 = 10
 R626: 16 f_0 + 8 f_1 + 8 f_2 + 16 f_3 + 12 f_4 + 8 f_5 + 16 f_6 + 12 f_7
   + 8 f_8 + 16 f_9 + 8 f_10 + 12 f_11 + 12 f_12 + 12 f_13 + g2 = 10
 R627: 16 f_0 + 8 f_1 + 8 f_2 + 16 f_3 + 12 f_4 + 8 f_5 + 16 f_6 + 12 f_7
   + 8 f_8 + 16 f_9 + 8 f_10 + 12 f_11 + 12 f_12 + 12 f_13 + g2 = 10
 R628: 16 f_0 + 8 f_1 + 8 f_2 + 16 f_3 + 12 f_4 + 8 f_5 + 16 f_6 + 12 f_7
   + 8 f_8 + 16 f_9 + 8 f_10 + 12 f_11 + 12 f_12 + 12 f_13 + g2 = 10
 R629: 16 f_0 + 8 f_1 + 8 f_2 + 16 f_3 + 12 f_4 + 8 f_5 + 16 f_6 + 12 f_7
   + 8 f_8 + 16 f_9 + 8 f_10 + 12 f_11 + 12 f_12 + 12 f_13 + g2 = 10
 R630: - f_0 - f_1 + g_01 >= -1
 R631: - f_0 - f_2 + g_02 >= -1
 R632: - f_0 - f_3 + g_03 >= -1
 R633: - f_0 - f_4 + g_04 >= -1
 R634: - f_0 - f_5 + g_05 >= -1
 R635: - f_0 - f_6 + g_06 >= -1
 R636: - f_0 - f_7 + g_07 >= -1
 R637: - f_0 - f_8 + g_08 >= -1
 R638: - f_0 - f_9 + g_09 >= -1
 R639: - f_0 - f_10 + g_010 >= -1
 R640: - f_0 - f_11 + g_011 >= -1
 R641: - f_0 - f_12 + g_012 >= -1
 R642: - f_0 - f_13 + g_013 >= -1
 R643: - f_0 - f_1 + g_10 >= -1
 R644: - f_1 - f_2 + g_12 >= -1
 R645: - f_1 - f_3 + g_13 >= -1
 R646: - f_1 - f_4 + g_14 >= -1
 R647: - f_1 - f_5 + g_15 >= -1
 R648: - f_1 - f_6 + g_16 >= -1
 R649: - f_1 - f_7 + g_17 >= -1
 R650: - f_1 - f_8 + g_18 >= -1
 R651: - f_1 - f_9 + g_19 >= -1
 R652: - f_1 - f_10 + g_110 >= -1
 R653: - f_1 - f_11 + g_111 >= -1
 R654: - f_1 - f_12 + g_112 >= -1
 R655: - f_1 - f_13 + g_113 >= -1
 R656: - f_0 - f_2 + g_20 >= -1
 R657: - f_1 - f_2 + g_21 >= -1
 R658: - f_2 - f_3 + g_23 >= -1
 R659: - f_2 - f_4 + g_24 >= -1
 R660: - f_2 - f_5 + g_25 >= -1
 R661: - f_2 - f_6 + g_26 >= -1
 R662: - f_2 - f_7 + g_27 >= -1
 R663: - f_2 - f_8 + g_28 >= -1
 R664: - f_2 - f_9 + g_29 >= -1
 R665: - f_2 - f_10 + g_210 >= -1
 R666: - f_2 - f_11 + g_211 >= -1
 R667: - f_2 - f_12 + g_212 >= -1
 R668: - f_2 - f_13 + g_213 >= -1
 R669: - f_0 - f_3 + g_30 >= -1
 R670: - f_1 - f_3 + g_31 >= -1
 R671: - f_2 - f_3 + g_32 >= -1
 R672: - f_3 - f_4 + g_34 >= -1
 R673: - f_3 - f_5 + g_35 >= -1
 R674: - f_3 - f_6 + g_36 >= -1
 R675: - f_3 - f_7 + g_37 >= -1
 R676: - f_3 - f_8 + g_38 >= -1
 R677: - f_3 - f_9 + g_39 >= -1
 R678: - f_3 - f_10 + g_310 >= -1
 R679: - f_3 - f_11 + g_311 >= -1
 R680: - f_3 - f_12 + g_312 >= -1
 R681: - f_3 - f_13 + g_313 >= -1
 R682: - f_0 - f_4 + g_40 >= -1
 R683: - f_1 - f_4 + g_41 >= -1
 R684: - f_2 - f_4 + g_42 >= -1
 R685: - f_3 - f_4 + g_43 >= -1
 R686: - f_4 - f_5 + g_45 >= -1
 R687: - f_4 - f_6 + g_46 >= -1
 R688: - f_4 - f_7 + g_47 >= -1
 R689: - f_4 - f_8 + g_48 >= -1
 R690: - f_4 - f_9 + g_49 >= -1
 R691: - f_4 - f_10 + g_410 >= -1
 R692: - f_4 - f_11 + g_411 >= -1
 R693: - f_4 - f_12 + g_412 >= -1
 R694: - f_4 - f_13 + g_413 >= -1
 R695: - f_0 - f_5 + g_50 >= -1
 R696: - f_1 - f_5 + g_51 >= -1
 R697: - f_2 - f_5 + g_52 >= -1
 R698: - f_3 - f_5 + g_53 >= -1
 R699: - f_4 - f_5 + g_54 >= -1
 R700: - f_5 - f_6 + g_56 >= -1
 R701: - f_5 - f_7 + g_57 >= -1
 R702: - f_5 - f_8 + g_58 >= -1
 R703: - f_5 - f_9 + g_59 >= -1
 R704: - f_5 - f_10 + g_510 >= -1
 R705: - f_5 - f_11 + g_511 >= -1
 R706: - f_5 - f_12 + g_512 >= -1
 R707: - f_5 - f_13 + g_513 >= -1
 R708: - f_0 - f_6 + g_60 >= -1
 R709: - f_1 - f_6 + g_61 >= -1
 R710: - f_2 - f_6 + g_62 >= -1
 R711: - f_3 - f_6 + g_63 >= -1
 R712: - f_4 - f_6 + g_64 >= -1
 R713: - f_5 - f_6 + g_65 >= -1
 R714: - f_6 - f_7 + g_67 >= -1
 R715: - f_6 - f_8 + g_68 >= -1
 R716: - f_6 - f_9 + g_69 >= -1
 R717: - f_6 - f_10 + g_610 >= -1
 R718: - f_6 - f_11 + g_611 >= -1
 R719: - f_6 - f_12 + g_612 >= -1
 R720: - f_6 - f_13 + g_613 >= -1
 R721: - f_0 - f_7 + g_70 >= -1
 R722: - f_1 - f_7 + g_71 >= -1
 R723: - f_2 - f_7 + g_72 >= -1
 R724: - f_3 - f_7 + g_73 >= -1
 R725: - f_4 - f_7 + g_74 >= -1
 R726: - f_5 - f_7 + g_75 >= -1
 R727: - f_6 - f_7 + g_76 >= -1
 R728: - f_7 - f_8 + g_78 >= -1
 R729: - f_7 - f_9 + g_79 >= -1
 R730: - f_7 - f_10 + g_710 >= -1
 R731: - f_7 - f_11 + g_711 >= -1
 R732: - f_7 - f_12 + g_712 >= -1
 R733: - f_7 - f_13 + g_713 >= -1
 R734: - f_0 - f_8 + g_80 >= -1
 R735: - f_1 - f_8 + g_81 >= -1
 R736: - f_2 - f_8 + g_82 >= -1
 R737: - f_3 - f_8 + g_83 >= -1
 R738: - f_4 - f_8 + g_84 >= -1
 R739: - f_5 - f_8 + g_85 >= -1
 R740: - f_6 - f_8 + g_86 >= -1
 R741: - f_7 - f_8 + g_87 >= -1
 R742: - f_8 - f_9 + g_89 >= -1
 R743: - f_8 - f_10 + g_810 >= -1
 R744: - f_8 - f_11 + g_811 >= -1
 R745: - f_8 - f_12 + g_812 >= -1
 R746: - f_8 - f_13 + g_813 >= -1
 R747: - f_0 - f_9 + g_90 >= -1
 R748: - f_1 - f_9 + g_91 >= -1
 R749: - f_2 - f_9 + g_92 >= -1
 R750: - f_3 - f_9 + g_93 >= -1
 R751: - f_4 - f_9 + g_94 >= -1
 R752: - f_5 - f_9 + g_95 >= -1
 R753: - f_6 - f_9 + g_96 >= -1
 R754: - f_7 - f_9 + g_97 >= -1
 R755: - f_8 - f_9 + g_98 >= -1
 R756: - f_9 - f_10 + g_910 >= -1
 R757: - f_9 - f_11 + g_911 >= -1
 R758: - f_9 - f_12 + g_912 >= -1
 R759: - f_9 - f_13 + g_913 >= -1
 R760: - f_0 - f_10 + g_100 >= -1
 R761: - f_1 - f_10 + g_101 >= -1
 R762: - f_2 - f_10 + g_102 >= -1
 R763: - f_3 - f_10 + g_103 >= -1
 R764: - f_4 - f_10 + g_104 >= -1
 R765: - f_5 - f_10 + g_105 >= -1
 R766: - f_6 - f_10 + g_106 >= -1
 R767: - f_7 - f_10 + g_107 >= -1
 R768: - f_8 - f_10 + g_108 >= -1
 R769: - f_9 - f_10 + g_109 >= -1
 R770: - f_10 - f_11 + g_1011 >= -1
 R771: - f_10 - f_12 + g_1012 >= -1
 R772: - f_10 - f_13 + g_1013 >= -1
 R773: - f_0 - f_11 + g_110 >= -1
 R774: - f_1 - f_11 + g_111 >= -1
 R775: - f_2 - f_11 + g_112 >= -1
 R776: - f_3 - f_11 + g_113 >= -1
 R777: - f_4 - f_11 + g_114 >= -1
 R778: - f_5 - f_11 + g_115 >= -1
 R779: - f_6 - f_11 + g_116 >= -1
 R780: - f_7 - f_11 + g_117 >= -1
 R781: - f_8 - f_11 + g_118 >= -1
 R782: - f_9 - f_11 + g_119 >= -1
 R783: - f_10 - f_11 + g_1110 >= -1
 R784: - f_11 - f_12 + g_1112 >= -1
 R785: - f_11 - f_13 + g_1113 >= -1
 R786: - f_0 - f_12 + g_120 >= -1
 R787: - f_1 - f_12 + g_121 >= -1
 R788: - f_2 - f_12 + g_122 >= -1
 R789: - f_3 - f_12 + g_123 >= -1
 R790: - f_4 - f_12 + g_124 >= -1
 R791: - f_5 - f_12 + g_125 >= -1
 R792: - f_6 - f_12 + g_126 >= -1
 R793: - f_7 - f_12 + g_127 >= -1
 R794: - f_8 - f_12 + g_128 >= -1
 R795: - f_9 - f_12 + g_129 >= -1
 R796: - f_10 - f_12 + g_1210 >= -1
 R797: - f_11 - f_12 + g_1211 >= -1
 R798: - f_12 - f_13 + g_1213 >= -1
 R799: - f_0 - f_13 + g_130 >= -1
 R800: - f_1 - f_13 + g_131 >= -1
 R801: - f_2 - f_13 + g_132 >= -1
 R802: - f_3 - f_13 + g_133 >= -1
 R803: - f_4 - f_13 + g_134 >= -1
 R804: - f_5 - f_13 + g_135 >= -1
 R805: - f_6 - f_13 + g_136 >= -1
 R806: - f_7 - f_13 + g_137 >= -1
 R807: - f_8 - f_13 + g_138 >= -1
 R808: - f_9 - f_13 + g_139 >= -1
 R809: - f_10 - f_13 + g_1310 >= -1
 R810: - f_11 - f_13 + g_1311 >= -1
 R811: - f_12 - f_13 + g_1312 >= -1
Bounds
Binaries
 f_0 f_1 f_2 f_3 f_4 f_5 f_6 f_7 f_8 f_9 f_10 f_11 f_12 f_13 l_01 l_02 l_03
 l_04 l_05 l_06 l_07 l_08 l_09 l_010 l_011 l_012 l_013 l_10 l_12 l_13 l_14
 l_15 l_16 l_17 l_18 l_19 l_110 l_111 l_112 l_113 l_20 l_21 l_23 l_24 l_25
 l_26 l_27 l_28 l_29 l_210 l_211 l_212 l_213 l_30 l_31 l_32 l_34 l_35 l_36
 l_37 l_38 l_39 l_310 l_311 l_312 l_313 l_40 l_41 l_42 l_43 l_45 l_46 l_47
 l_48 l_49 l_410 l_411 l_412 l_413 l_50 l_51 l_52 l_53 l_54 l_56 l_57 l_58
 l_59 l_510 l_511 l_512 l_513 l_60 l_61 l_62 l_63 l_64 l_65 l_67 l_68 l_69
 l_610 l_611 l_612 l_613 l_70 l_71 l_72 l_73 l_74 l_75 l_76 l_78 l_79 l_710
 l_711 l_712 l_713 l_80 l_81 l_82 l_83 l_84 l_85 l_86 l_87 l_89 l_810 l_811
 l_812 l_813 l_90 l_91 l_92 l_93 l_94 l_95 l_96 l_97 l_98 l_910 l_911 l_912
 l_913 l_100 l_101 l_102 l_103 l_104 l_105 l_106 l_107 l_108 l_109 l_1011
 l_1012 l_1013 l_110 l_111 l_112 l_113 l_114 l_115 l_116 l_117 l_118 l_119
 l_1110 l_1112 l_1113 l_120 l_121 l_122 l_123 l_124 l_125 l_126 l_127 l_128
 l_129 l_1210 l_1211 l_1213 l_130 l_131 l_132 l_133 l_134 l_135 l_136 l_137
 l_138 l_139 l_1310 l_1311 l_1312 b_01 b_02 b_03 b_04 b_05 b_06 b_07 b_08
 b_09 b_010 b_011 b_012 b_013 b_10 b_12 b_13 b_14 b_15 b_16 b_17 b_18 b_19
 b_110 b_111 b_112 b_113 b_20 b_21 b_23 b_24 b_25 b_26 b_27 b_28 b_29 b_210
 b_211 b_212 b_213 b_30 b_31 b_32 b_34 b_35 b_36 b_37 b_38 b_39 b_310 b_311
 b_312 b_313 b_40 b_41 b_42 b_43 b_45 b_46 b_47 b_48 b_49 b_410 b_411 b_412
 b_413 b_50 b_51 b_52 b_53 b_54 b_56 b_57 b_58 b_59 b_510 b_511 b_512 b_513
 b_60 b_61 b_62 b_63 b_64 b_65 b_67 b_68 b_69 b_610 b_611 b_612 b_613 b_70
 b_71 b_72 b_73 b_74 b_75 b_76 b_78 b_79 b_710 b_711 b_712 b_713 b_80 b_81
 b_82 b_83 b_84 b_85 b_86 b_87 b_89 b_810 b_811 b_812 b_813 b_90 b_91 b_92
 b_93 b_94 b_95 b_96 b_97 b_98 b_910 b_911 b_912 b_913 b_100 b_101 b_102
 b_103 b_104 b_105 b_106 b_107 b_108 b_109 b_1011 b_1012 b_1013 b_110 b_111
 b_112 b_113 b_114 b_115 b_116 b_117 b_118 b_119 b_1110 b_1112 b_1113 b_120
 b_121 b_122 b_123 b_124 b_125 b_126 b_127 b_128 b_129 b_1210 b_1211 b_1213
 b_130 b_131 b_132 b_133 b_134 b_135 b_136 b_137 b_138 b_139 b_1310 b_1311
 b_1312 g_01 g_02 g_03 g_04 g_05 g_06 g_07 g_08 g_09 g_010 g_011 g_012
 g_013 g_10 g_12 g_13 g_14 g_15 g_16 g_17 g_18 g_19 g_110 g_111 g_112 g_113
 g_20 g_21 g_23 g_24 g_25 g_26 g_27 g_28 g_29 g_210 g_211 g_212 g_213 g_30
 g_31 g_32 g_34 g_35 g_36 g_37 g_38 g_39 g_310 g_311 g_312 g_313 g_40 g_41
 g_42 g_43 g_45 g_46 g_47 g_48 g_49 g_410 g_411 g_412 g_413 g_50 g_51 g_52
 g_53 g_54 g_56 g_57 g_58 g_59 g_510 g_511 g_512 g_513 g_60 g_61 g_62 g_63
 g_64 g_65 g_67 g_68 g_69 g_610 g_611 g_612 g_613 g_70 g_71 g_72 g_73 g_74
 g_75 g_76 g_78 g_79 g_710 g_711 g_712 g_713 g_80 g_81 g_82 g_83 g_84 g_85
 g_86 g_87 g_89 g_810 g_811 g_812 g_813 g_90 g_91 g_92 g_93 g_94 g_95 g_96
 g_97 g_98 g_910 g_911 g_912 g_913 g_100 g_101 g_102 g_103 g_104 g_105
 g_106 g_107 g_108 g_109 g_1011 g_1012 g_1013 g_110 g_111 g_112 g_113 g_114
 g_115 g_116 g_117 g_118 g_119 g_1110 g_1112 g_1113 g_120 g_121 g_122 g_123
 g_124 g_125 g_126 g_127 g_128 g_129 g_1210 g_1211 g_1213 g_130 g_131 g_132
 g_133 g_134 g_135 g_136 g_137 g_138 g_139 g_1310 g_1311 g_1312
End
